$comment
Hydrogen molecule
$end

$molecule
0 1
H 0.0 0.0 0.0
H 0.0 0.0 0.75 
$end

$rem
method = ccsd
basis = 3-21g 
print_qis = true
gui = 2
$end
